-1,0,1
1,1,3
3,3,4
1,4,11
2,11,16
4,16,26
5,26,27
6,27,29
5,29,37
16,37,38
17,38,43
5,43,44
10,44,50
13,50,51
7,51,54
14,54,63
12,63,73
11,73,77
8,77,86
15,86,91
20,91,95
18,95,103
9,103,112
19,112,120
21,120,122
23,122,127
21,127,132
28,132,138
35,138,142
39,142,147
24,147,157
25,157,165
31,165,168
37,168,171
27,171,179
33,179,185
22,185,187
32,187,188
34,188,196
36,196,198
40,198,199
29,199,201
26,201,205
30,205,206
38,206,210